param n := 60;
param c := 10000
param : V : p w :=
   0	  98	 494
   1	  48	 250
   2	   1	 256
   3	  35	 429
   4	  24	 266
   5	  95	 305
   6	  85	 378
   7	  68	 268
   8	  89	 354
   9	  76	 482
  10	  61	 251
  11	   3	 267
  12	  12	 464
  13	  11	 259
  14	  56	 277
  15	  91	 398
  16	   3	 276
  17	   7	 326
  18	  11	 390
  19	  50	 260
  20	  19	 350
  21	   2	 482
  22	  58	 251
  23	  64	 267
  24	  75	 430
  25	  42	 262
  26	  65	 308
  27	  80	 400
  28	  83	 261
  29	  16	 339
  30	  58	 498
  31	  55	 250
  32	  85	 252
  33	  89	 362
  34	  62	 288
  35	  21	 350
  36	  39	 498
  37	  93	 250
  38	  80	 252
  39	  85	 459
  40	  49	 260
  41	  75	 281
  42	  47	 401
  43	   2	 271
  44	  27	 328
  45	  24	 367
  46	  12	 288
  47	  25	 345
  48	  94	 352
  49	   4	 279
  50	  96	 369
  51	  16	 476
  52	  97	 261
  53	  11	 263
  54	  84	 479
  55	  58	 254
  56	   9	 267
  57	  48	 436
  58	  31	 280
  59	   1	 284
;

set E :=
   0	   1
   0	   2
   0	   3
   0	   4
   0	   6
   0	   7
   0	   8
   0	  10
   0	  11
   0	  12
   0	  15
   0	  16
   0	  17
   0	  18
   0	  25
   0	  26
   0	  27
   0	  30
   0	  31
   0	  32
   0	  33
   0	  34
   0	  35
   0	  40
   0	  45
   0	  47
   0	  48
   0	  50
   0	  51
   0	  52
   0	  54
   0	  56
   0	  57
   1	   5
   1	   6
   1	  15
   1	  16
   1	  17
   1	  18
   1	  20
   1	  21
   1	  23
   1	  24
   1	  26
   1	  28
   1	  29
   1	  34
   1	  36
   1	  37
   1	  39
   1	  42
   1	  43
   1	  46
   1	  50
   1	  51
   1	  53
   1	  54
   1	  55
   1	  57
   1	  59
   2	   9
   2	  10
   2	  12
   2	  14
   2	  18
   2	  21
   2	  22
   2	  23
   2	  25
   2	  27
   2	  28
   2	  29
   2	  33
   2	  34
   2	  35
   2	  37
   2	  40
   2	  41
   2	  42
   2	  43
   2	  45
   2	  47
   2	  49
   2	  51
   2	  52
   2	  59
   3	   7
   3	   8
   3	   9
   3	  10
   3	  12
   3	  18
   3	  22
   3	  23
   3	  26
   3	  28
   3	  30
   3	  31
   3	  32
   3	  33
   3	  37
   3	  38
   3	  40
   3	  43
   3	  45
   3	  48
   3	  49
   3	  50
   3	  52
   3	  55
   3	  56
   3	  58
   4	   7
   4	  10
   4	  11
   4	  13
   4	  14
   4	  16
   4	  17
   4	  18
   4	  19
   4	  23
   4	  24
   4	  27
   4	  32
   4	  33
   4	  34
   4	  35
   4	  42
   4	  43
   4	  44
   4	  45
   4	  47
   4	  50
   4	  52
   4	  53
   4	  54
   4	  55
   4	  56
   4	  57
   4	  59
   5	   7
   5	  10
   5	  11
   5	  12
   5	  14
   5	  17
   5	  18
   5	  19
   5	  20
   5	  23
   5	  24
   5	  26
   5	  28
   5	  29
   5	  30
   5	  34
   5	  35
   5	  37
   5	  38
   5	  39
   5	  40
   5	  41
   5	  43
   5	  45
   5	  46
   5	  47
   5	  48
   5	  51
   5	  53
   5	  54
   5	  57
   5	  58
   5	  59
   6	   8
   6	  10
   6	  13
   6	  14
   6	  19
   6	  21
   6	  23
   6	  24
   6	  25
   6	  30
   6	  34
   6	  36
   6	  37
   6	  40
   6	  41
   6	  46
   6	  48
   6	  49
   6	  50
   6	  51
   6	  53
   6	  54
   6	  56
   6	  57
   6	  58
   6	  59
   7	   8
   7	   9
   7	  11
   7	  12
   7	  13
   7	  16
   7	  18
   7	  20
   7	  21
   7	  24
   7	  25
   7	  26
   7	  29
   7	  33
   7	  34
   7	  35
   7	  38
   7	  39
   7	  40
   7	  41
   7	  43
   7	  45
   7	  47
   7	  48
   7	  49
   7	  53
   7	  55
   7	  56
   7	  58
   7	  59
   8	  11
   8	  13
   8	  14
   8	  15
   8	  24
   8	  28
   8	  32
   8	  35
   8	  41
   8	  42
   8	  47
   8	  48
   8	  49
   8	  51
   8	  54
   8	  58
   9	  15
   9	  16
   9	  17
   9	  19
   9	  20
   9	  21
   9	  23
   9	  24
   9	  26
   9	  29
   9	  32
   9	  33
   9	  36
   9	  37
   9	  38
   9	  39
   9	  42
   9	  43
   9	  45
   9	  46
   9	  48
   9	  49
   9	  50
   9	  51
   9	  55
   9	  56
  10	  13
  10	  15
  10	  17
  10	  19
  10	  20
  10	  21
  10	  22
  10	  24
  10	  27
  10	  28
  10	  30
  10	  32
  10	  33
  10	  34
  10	  39
  10	  40
  10	  42
  10	  47
  10	  49
  10	  50
  10	  51
  10	  53
  10	  56
  10	  57
  11	  12
  11	  13
  11	  16
  11	  17
  11	  21
  11	  24
  11	  26
  11	  28
  11	  29
  11	  30
  11	  33
  11	  34
  11	  35
  11	  36
  11	  37
  11	  41
  11	  43
  11	  46
  11	  48
  11	  54
  12	  15
  12	  17
  12	  18
  12	  20
  12	  21
  12	  23
  12	  24
  12	  25
  12	  26
  12	  27
  12	  30
  12	  31
  12	  33
  12	  34
  12	  37
  12	  39
  12	  41
  12	  42
  12	  43
  12	  44
  12	  46
  12	  49
  12	  51
  12	  52
  12	  54
  12	  56
  12	  57
  12	  58
  13	  14
  13	  15
  13	  17
  13	  19
  13	  22
  13	  23
  13	  25
  13	  28
  13	  33
  13	  34
  13	  35
  13	  36
  13	  38
  13	  39
  13	  41
  13	  42
  13	  44
  13	  48
  13	  49
  13	  50
  13	  51
  13	  52
  13	  53
  13	  55
  13	  57
  13	  59
  14	  16
  14	  18
  14	  23
  14	  25
  14	  29
  14	  30
  14	  33
  14	  34
  14	  38
  14	  41
  14	  43
  14	  44
  14	  45
  14	  47
  14	  50
  14	  52
  14	  54
  14	  56
  14	  59
  15	  17
  15	  18
  15	  19
  15	  21
  15	  22
  15	  25
  15	  26
  15	  27
  15	  28
  15	  30
  15	  31
  15	  32
  15	  33
  15	  34
  15	  35
  15	  36
  15	  38
  15	  39
  15	  41
  15	  48
  15	  49
  15	  50
  15	  51
  15	  54
  15	  55
  15	  56
  15	  59
  16	  21
  16	  22
  16	  23
  16	  24
  16	  27
  16	  28
  16	  29
  16	  30
  16	  31
  16	  32
  16	  36
  16	  38
  16	  40
  16	  41
  16	  42
  16	  44
  16	  46
  16	  48
  16	  50
  16	  51
  16	  53
  16	  56
  16	  57
  16	  58
  16	  59
  17	  19
  17	  23
  17	  24
  17	  28
  17	  29
  17	  30
  17	  32
  17	  34
  17	  36
  17	  37
  17	  40
  17	  44
  17	  48
  17	  49
  17	  57
  17	  58
  17	  59
  18	  19
  18	  20
  18	  22
  18	  23
  18	  24
  18	  25
  18	  26
  18	  27
  18	  28
  18	  29
  18	  30
  18	  31
  18	  32
  18	  35
  18	  37
  18	  39
  18	  44
  18	  46
  18	  48
  18	  50
  18	  52
  18	  54
  18	  55
  18	  56
  19	  20
  19	  21
  19	  23
  19	  24
  19	  25
  19	  29
  19	  34
  19	  36
  19	  38
  19	  39
  19	  40
  19	  43
  19	  46
  19	  47
  19	  48
  19	  50
  19	  51
  19	  52
  19	  55
  19	  58
  19	  59
  20	  23
  20	  25
  20	  26
  20	  27
  20	  28
  20	  30
  20	  31
  20	  32
  20	  35
  20	  36
  20	  37
  20	  40
  20	  41
  20	  42
  20	  43
  20	  44
  20	  47
  20	  49
  20	  50
  20	  54
  20	  55
  20	  56
  20	  57
  20	  58
  21	  22
  21	  25
  21	  27
  21	  28
  21	  29
  21	  32
  21	  33
  21	  34
  21	  35
  21	  36
  21	  38
  21	  40
  21	  42
  21	  43
  21	  45
  21	  47
  21	  48
  21	  50
  21	  51
  21	  52
  21	  55
  21	  57
  21	  58
  21	  59
  22	  23
  22	  24
  22	  25
  22	  26
  22	  27
  22	  28
  22	  31
  22	  33
  22	  36
  22	  38
  22	  39
  22	  40
  22	  44
  22	  47
  22	  48
  22	  50
  22	  51
  22	  52
  22	  57
  23	  25
  23	  28
  23	  31
  23	  32
  23	  33
  23	  34
  23	  41
  23	  43
  23	  44
  23	  45
  23	  50
  23	  51
  23	  53
  23	  56
  23	  58
  23	  59
  24	  26
  24	  29
  24	  33
  24	  34
  24	  39
  24	  41
  24	  43
  24	  46
  24	  47
  24	  49
  24	  51
  24	  52
  24	  54
  24	  55
  24	  56
  24	  59
  25	  29
  25	  30
  25	  32
  25	  37
  25	  39
  25	  42
  25	  44
  25	  45
  25	  47
  25	  48
  25	  49
  25	  51
  25	  52
  25	  53
  25	  54
  25	  58
  26	  30
  26	  31
  26	  35
  26	  38
  26	  39
  26	  40
  26	  44
  26	  47
  26	  49
  26	  50
  26	  51
  26	  52
  26	  53
  26	  56
  26	  58
  27	  30
  27	  33
  27	  35
  27	  36
  27	  38
  27	  43
  27	  45
  27	  46
  27	  47
  27	  48
  27	  50
  27	  51
  27	  52
  27	  53
  27	  54
  27	  55
  27	  56
  27	  59
  28	  30
  28	  32
  28	  33
  28	  34
  28	  44
  28	  45
  28	  47
  28	  49
  28	  50
  28	  51
  28	  52
  28	  54
  28	  57
  28	  59
  29	  30
  29	  34
  29	  36
  29	  39
  29	  41
  29	  43
  29	  45
  29	  48
  29	  49
  29	  50
  29	  51
  29	  52
  29	  53
  29	  54
  29	  56
  29	  57
  30	  32
  30	  33
  30	  34
  30	  36
  30	  37
  30	  38
  30	  40
  30	  41
  30	  42
  30	  45
  30	  46
  30	  50
  30	  51
  30	  52
  30	  53
  30	  54
  30	  55
  30	  56
  30	  59
  31	  33
  31	  34
  31	  36
  31	  41
  31	  45
  31	  49
  31	  50
  31	  52
  31	  53
  31	  54
  31	  56
  31	  57
  31	  58
  31	  59
  32	  34
  32	  37
  32	  40
  32	  41
  32	  46
  32	  48
  32	  50
  32	  51
  32	  53
  32	  54
  32	  56
  32	  57
  33	  34
  33	  35
  33	  41
  33	  44
  33	  45
  33	  46
  33	  47
  33	  50
  33	  51
  33	  53
  33	  54
  33	  55
  33	  56
  33	  57
  33	  59
  34	  36
  34	  37
  34	  39
  34	  40
  34	  41
  34	  42
  34	  44
  34	  48
  34	  51
  34	  53
  34	  54
  34	  56
  34	  57
  35	  36
  35	  40
  35	  41
  35	  42
  35	  43
  35	  46
  35	  47
  35	  48
  35	  49
  35	  50
  35	  52
  35	  54
  35	  55
  35	  56
  35	  57
  35	  59
  36	  37
  36	  38
  36	  41
  36	  43
  36	  44
  36	  45
  36	  47
  36	  48
  36	  49
  36	  55
  37	  38
  37	  39
  37	  42
  37	  45
  37	  47
  37	  48
  37	  50
  37	  54
  37	  55
  37	  58
  37	  59
  38	  39
  38	  40
  38	  45
  38	  46
  38	  47
  38	  49
  38	  50
  38	  51
  38	  52
  38	  54
  38	  55
  38	  56
  38	  58
  39	  47
  39	  48
  39	  49
  39	  50
  39	  56
  39	  59
  40	  42
  40	  43
  40	  46
  40	  47
  40	  48
  40	  51
  40	  53
  40	  54
  40	  56
  40	  59
  41	  42
  41	  45
  41	  46
  41	  48
  41	  49
  41	  50
  41	  53
  41	  57
  42	  47
  42	  48
  42	  51
  42	  54
  43	  47
  43	  48
  43	  49
  43	  50
  43	  51
  43	  52
  43	  53
  43	  54
  43	  57
  43	  59
  44	  46
  44	  48
  44	  53
  44	  56
  44	  57
  44	  58
  44	  59
  45	  46
  45	  47
  45	  48
  45	  53
  45	  57
  45	  58
  45	  59
  46	  48
  46	  56
  47	  51
  47	  53
  47	  58
  47	  59
  48	  49
  48	  53
  48	  54
  48	  55
  48	  56
  48	  57
  48	  58
  49	  50
  49	  51
  49	  52
  49	  54
  49	  56
  49	  58
  49	  59
  50	  53
  50	  54
  50	  55
  50	  56
  50	  57
  50	  58
  51	  52
  51	  56
  51	  57
  51	  58
  51	  59
  52	  53
  52	  57
  53	  58
  53	  59
  54	  56
  54	  57
  54	  58
  54	  59
  55	  56
  55	  58
  56	  57
  56	  59
  57	  58
;
